Minimize
	value: tt

Subject to
tt + 1000 s_1_1 > 0.0
tt - t_1_1 - 1001.731947 s_1_1  + 0.865973 s_1_8  + 0.865973 s_1_7  > -998.895033
tt + 1000 s_2_1 > 0.0
tt - t_2_1 - 1001.852658 s_2_1  + 0.926329 s_2_8  + 0.926329 s_2_7  > -992.291155
tt + 1000 s_1_2 > 0.0
tt - t_1_2 - 1000.865973 s_1_2  + 0.865973 s_1_7  > -998.911689
tt + 1000 s_2_2 > 0.0
tt - t_2_2 - 1000.926329 s_2_2  + 0.926329 s_2_7  > -992.014024
tt + 1000 s_1_3 > 0.0
tt - t_1_3 - 1001.731947 s_1_3  + 0.865973 s_1_8  + 0.865973 s_1_7  > -999.817900
tt + 1000 s_2_3 > 0.0
tt - t_2_3 - 1001.852658 s_2_3  + 0.926329 s_2_8  + 0.926329 s_2_7  > -998.523925
tt + 1000 s_1_4 > 0.0
tt - t_1_4 - 1000.865973 s_1_4  + 0.865973 s_1_7  > -999.747456
tt + 1000 s_2_4 > 0.0
tt - t_2_4 - 1000.926329 s_2_4  + 0.926329 s_2_7  > -997.934238
tt + 1000 s_1_5 > 0.0
tt - t_1_5 - 1000.865973 s_1_5  + 0.865973 s_1_8  > -999.546978
tt + 1000 s_2_5 > 0.0
tt - t_2_5 - 1000.926329 s_2_5  + 0.926329 s_2_8  > -996.233390
tt + 1000 s_1_6 > 0.0
tt - t_1_6 - 1005.195840 s_1_6  + 0.865973 s_1_7  + 0.865973 s_1_2  + 0.865973 s_1_5  + 0.865973 s_1_4  + 0.865973 s_1_3  + 0.865973 s_1_1  > -999.842000
tt + 1000 s_2_6 > 0.0
tt - t_2_6 - 1005.557973 s_2_6  + 0.926329 s_2_7  + 0.926329 s_2_2  + 0.926329 s_2_5  + 0.926329 s_2_4  + 0.926329 s_2_3  + 0.926329 s_2_1  > -998.940875
tt + 1000 s_1_7 > 0.0
tt - t_1_7 - 1000.000000 s_1_7  > -998.448700
tt + 1000 s_2_7 > 0.0
tt - t_2_7 - 1000.000000 s_2_7  > -996.547369
tt + 1000 s_1_8 > 0.0
tt - t_1_8 - 1000.000000 s_1_8  > -998.625033
tt + 1000 s_2_8 > 0.0
tt - t_2_8 - 1000.000000 s_2_8  > -996.869056
s_1_1 + s_2_1 = 1
s_1_2 + s_2_2 = 1
s_1_3 + s_2_3 = 1
s_1_4 + s_2_4 = 1
s_1_5 + s_2_5 = 1
s_1_6 + s_2_6 = 1
s_1_7 + s_2_7 = 1
s_1_8 + s_2_8 = 1
s_1_1 + s_1_2 + 1000 r_1_1_2 >= 2
- s_1_1 - s_1_2 - 1000 r_1_1_2 >= -1001
t_1_1 - t_1_2 - 1000.000000 u_1_1_2 - 0.865973 s_1_2  + 0.865973 s_1_7  + 2000.000000 r_1_1_2 > -998.911689
s_2_1 + s_2_2 + 1000 r_2_1_2 >= 2
- s_2_1 - s_2_2 - 1000 r_2_1_2 >= -1001
t_2_1 - t_2_2 - 1000.000000 u_2_1_2 - 0.926329 s_2_2  + 0.926329 s_2_7  + 2000.000000 r_2_1_2 > -992.014024
s_1_1 + s_1_3 + 1000 r_1_1_3 >= 2
- s_1_1 - s_1_3 - 1000 r_1_1_3 >= -1001
t_1_1 - t_1_3 - 1000.000000 u_1_1_3 - 1.731947 s_1_3  + 0.865973 s_1_8  + 0.865973 s_1_7  + 2000.000000 r_1_1_3 > -999.817900
s_2_1 + s_2_3 + 1000 r_2_1_3 >= 2
- s_2_1 - s_2_3 - 1000 r_2_1_3 >= -1001
t_2_1 - t_2_3 - 1000.000000 u_2_1_3 - 1.852658 s_2_3  + 0.926329 s_2_8  + 0.926329 s_2_7  + 2000.000000 r_2_1_3 > -998.523925
s_1_1 + s_1_4 + 1000 r_1_1_4 >= 2
- s_1_1 - s_1_4 - 1000 r_1_1_4 >= -1001
t_1_1 - t_1_4 - 1000.000000 u_1_1_4 - 0.865973 s_1_4  + 0.865973 s_1_7  + 2000.000000 r_1_1_4 > -999.747456
s_2_1 + s_2_4 + 1000 r_2_1_4 >= 2
- s_2_1 - s_2_4 - 1000 r_2_1_4 >= -1001
t_2_1 - t_2_4 - 1000.000000 u_2_1_4 - 0.926329 s_2_4  + 0.926329 s_2_7  + 2000.000000 r_2_1_4 > -997.934238
s_1_1 + s_1_5 + 1000 r_1_1_5 >= 2
- s_1_1 - s_1_5 - 1000 r_1_1_5 >= -1001
t_1_1 - t_1_5 - 1000.000000 u_1_1_5 - 0.865973 s_1_5  + 0.865973 s_1_8  + 2000.000000 r_1_1_5 > -999.546978
s_2_1 + s_2_5 + 1000 r_2_1_5 >= 2
- s_2_1 - s_2_5 - 1000 r_2_1_5 >= -1001
t_2_1 - t_2_5 - 1000.000000 u_2_1_5 - 0.926329 s_2_5  + 0.926329 s_2_8  + 2000.000000 r_2_1_5 > -996.233390
t_1_6 - t_1_1 - 1001.731947 s_1_1  + 0.865973 s_1_8  + 0.865973 s_1_7  > -998.895033
t_1_6 - t_2_1 - 1001.852658 s_2_1  + 0.926329 s_2_8  + 0.926329 s_2_7  > -992.291155
t_2_6 - t_1_1 - 1001.731947 s_1_1  + 0.865973 s_1_8  + 0.865973 s_1_7  > -998.895033
t_2_6 - t_2_1 - 1001.852658 s_2_1  + 0.926329 s_2_8  + 0.926329 s_2_7  > -992.291155
t_1_1 - t_1_7 - 1000.000000 s_1_7  > -998.448700
t_1_1 - t_2_7 - 1000.000000 s_2_7  > -996.547369
t_2_1 - t_1_7 - 1000.000000 s_1_7  > -998.448700
t_2_1 - t_2_7 - 1000.000000 s_2_7  > -996.547369
t_1_1 - t_1_8 - 1000.000000 s_1_8  > -998.625033
t_1_1 - t_2_8 - 1000.000000 s_2_8  > -996.869056
t_2_1 - t_1_8 - 1000.000000 s_1_8  > -998.625033
t_2_1 - t_2_8 - 1000.000000 s_2_8  > -996.869056
s_1_2 + s_1_1 + 1000 r_1_1_2 >= 2
- s_1_2 - s_1_1 - 1000 r_1_1_2 >= -1001
t_1_2 - t_1_1 + 1000.000000 u_1_1_2 - 1.731947 s_1_1  + 0.865973 s_1_8  + 0.865973 s_1_7  + 2000.000000 r_1_1_2 > 1.104967
s_2_2 + s_2_1 + 1000 r_2_1_2 >= 2
- s_2_2 - s_2_1 - 1000 r_2_1_2 >= -1001
t_2_2 - t_2_1 + 1000.000000 u_2_1_2 - 1.852658 s_2_1  + 0.926329 s_2_8  + 0.926329 s_2_7  + 2000.000000 r_2_1_2 > 7.708845
s_1_2 + s_1_3 + 1000 r_1_2_3 >= 2
- s_1_2 - s_1_3 - 1000 r_1_2_3 >= -1001
t_1_2 - t_1_3 - 1000.000000 u_1_2_3 - 1.731947 s_1_3  + 0.865973 s_1_8  + 0.865973 s_1_7  + 2000.000000 r_1_2_3 > -999.817900
s_2_2 + s_2_3 + 1000 r_2_2_3 >= 2
- s_2_2 - s_2_3 - 1000 r_2_2_3 >= -1001
t_2_2 - t_2_3 - 1000.000000 u_2_2_3 - 1.852658 s_2_3  + 0.926329 s_2_8  + 0.926329 s_2_7  + 2000.000000 r_2_2_3 > -998.523925
s_1_2 + s_1_4 + 1000 r_1_2_4 >= 2
- s_1_2 - s_1_4 - 1000 r_1_2_4 >= -1001
t_1_2 - t_1_4 - 1000.000000 u_1_2_4 - 0.865973 s_1_4  + 0.865973 s_1_7  + 2000.000000 r_1_2_4 > -999.747456
s_2_2 + s_2_4 + 1000 r_2_2_4 >= 2
- s_2_2 - s_2_4 - 1000 r_2_2_4 >= -1001
t_2_2 - t_2_4 - 1000.000000 u_2_2_4 - 0.926329 s_2_4  + 0.926329 s_2_7  + 2000.000000 r_2_2_4 > -997.934238
s_1_2 + s_1_5 + 1000 r_1_2_5 >= 2
- s_1_2 - s_1_5 - 1000 r_1_2_5 >= -1001
t_1_2 - t_1_5 - 1000.000000 u_1_2_5 - 0.865973 s_1_5  + 0.865973 s_1_8  + 2000.000000 r_1_2_5 > -999.546978
s_2_2 + s_2_5 + 1000 r_2_2_5 >= 2
- s_2_2 - s_2_5 - 1000 r_2_2_5 >= -1001
t_2_2 - t_2_5 - 1000.000000 u_2_2_5 - 0.926329 s_2_5  + 0.926329 s_2_8  + 2000.000000 r_2_2_5 > -996.233390
t_1_6 - t_1_2 - 1000.865973 s_1_2  + 0.865973 s_1_7  > -998.911689
t_1_6 - t_2_2 - 1000.926329 s_2_2  + 0.926329 s_2_7  > -992.014024
t_2_6 - t_1_2 - 1000.865973 s_1_2  + 0.865973 s_1_7  > -998.911689
t_2_6 - t_2_2 - 1000.926329 s_2_2  + 0.926329 s_2_7  > -992.014024
t_1_2 - t_1_7 - 1000.000000 s_1_7  > -998.448700
t_1_2 - t_2_7 - 1000.000000 s_2_7  > -996.547369
t_2_2 - t_1_7 - 1000.000000 s_1_7  > -998.448700
t_2_2 - t_2_7 - 1000.000000 s_2_7  > -996.547369
s_1_2 + s_1_8 + 1000 r_1_2_8 >= 2
- s_1_2 - s_1_8 - 1000 r_1_2_8 >= -1001
t_1_2 - t_1_8 - 1000.000000 u_1_2_8 - 0.000000 s_1_8  + 2000.000000 r_1_2_8 > -998.625033
s_2_2 + s_2_8 + 1000 r_2_2_8 >= 2
- s_2_2 - s_2_8 - 1000 r_2_2_8 >= -1001
t_2_2 - t_2_8 - 1000.000000 u_2_2_8 - 0.000000 s_2_8  + 2000.000000 r_2_2_8 > -996.869056
s_1_3 + s_1_1 + 1000 r_1_1_3 >= 2
- s_1_3 - s_1_1 - 1000 r_1_1_3 >= -1001
t_1_3 - t_1_1 + 1000.000000 u_1_1_3 - 1.731947 s_1_1  + 0.865973 s_1_8  + 0.865973 s_1_7  + 2000.000000 r_1_1_3 > 1.104967
s_2_3 + s_2_1 + 1000 r_2_1_3 >= 2
- s_2_3 - s_2_1 - 1000 r_2_1_3 >= -1001
t_2_3 - t_2_1 + 1000.000000 u_2_1_3 - 1.852658 s_2_1  + 0.926329 s_2_8  + 0.926329 s_2_7  + 2000.000000 r_2_1_3 > 7.708845
s_1_3 + s_1_2 + 1000 r_1_2_3 >= 2
- s_1_3 - s_1_2 - 1000 r_1_2_3 >= -1001
t_1_3 - t_1_2 + 1000.000000 u_1_2_3 - 0.865973 s_1_2  + 0.865973 s_1_7  + 2000.000000 r_1_2_3 > 1.088311
s_2_3 + s_2_2 + 1000 r_2_2_3 >= 2
- s_2_3 - s_2_2 - 1000 r_2_2_3 >= -1001
t_2_3 - t_2_2 + 1000.000000 u_2_2_3 - 0.926329 s_2_2  + 0.926329 s_2_7  + 2000.000000 r_2_2_3 > 7.985976
s_1_3 + s_1_4 + 1000 r_1_3_4 >= 2
- s_1_3 - s_1_4 - 1000 r_1_3_4 >= -1001
t_1_3 - t_1_4 - 1000.000000 u_1_3_4 - 0.865973 s_1_4  + 0.865973 s_1_7  + 2000.000000 r_1_3_4 > -999.747456
s_2_3 + s_2_4 + 1000 r_2_3_4 >= 2
- s_2_3 - s_2_4 - 1000 r_2_3_4 >= -1001
t_2_3 - t_2_4 - 1000.000000 u_2_3_4 - 0.926329 s_2_4  + 0.926329 s_2_7  + 2000.000000 r_2_3_4 > -997.934238
s_1_3 + s_1_5 + 1000 r_1_3_5 >= 2
- s_1_3 - s_1_5 - 1000 r_1_3_5 >= -1001
t_1_3 - t_1_5 - 1000.000000 u_1_3_5 - 0.865973 s_1_5  + 0.865973 s_1_8  + 2000.000000 r_1_3_5 > -999.546978
s_2_3 + s_2_5 + 1000 r_2_3_5 >= 2
- s_2_3 - s_2_5 - 1000 r_2_3_5 >= -1001
t_2_3 - t_2_5 - 1000.000000 u_2_3_5 - 0.926329 s_2_5  + 0.926329 s_2_8  + 2000.000000 r_2_3_5 > -996.233390
t_1_6 - t_1_3 - 1001.731947 s_1_3  + 0.865973 s_1_8  + 0.865973 s_1_7  > -999.817900
t_1_6 - t_2_3 - 1001.852658 s_2_3  + 0.926329 s_2_8  + 0.926329 s_2_7  > -998.523925
t_2_6 - t_1_3 - 1001.731947 s_1_3  + 0.865973 s_1_8  + 0.865973 s_1_7  > -999.817900
t_2_6 - t_2_3 - 1001.852658 s_2_3  + 0.926329 s_2_8  + 0.926329 s_2_7  > -998.523925
t_1_3 - t_1_7 - 1000.000000 s_1_7  > -998.448700
t_1_3 - t_2_7 - 1000.000000 s_2_7  > -996.547369
t_2_3 - t_1_7 - 1000.000000 s_1_7  > -998.448700
t_2_3 - t_2_7 - 1000.000000 s_2_7  > -996.547369
t_1_3 - t_1_8 - 1000.000000 s_1_8  > -998.625033
t_1_3 - t_2_8 - 1000.000000 s_2_8  > -996.869056
t_2_3 - t_1_8 - 1000.000000 s_1_8  > -998.625033
t_2_3 - t_2_8 - 1000.000000 s_2_8  > -996.869056
s_1_4 + s_1_1 + 1000 r_1_1_4 >= 2
- s_1_4 - s_1_1 - 1000 r_1_1_4 >= -1001
t_1_4 - t_1_1 + 1000.000000 u_1_1_4 - 1.731947 s_1_1  + 0.865973 s_1_8  + 0.865973 s_1_7  + 2000.000000 r_1_1_4 > 1.104967
s_2_4 + s_2_1 + 1000 r_2_1_4 >= 2
- s_2_4 - s_2_1 - 1000 r_2_1_4 >= -1001
t_2_4 - t_2_1 + 1000.000000 u_2_1_4 - 1.852658 s_2_1  + 0.926329 s_2_8  + 0.926329 s_2_7  + 2000.000000 r_2_1_4 > 7.708845
s_1_4 + s_1_2 + 1000 r_1_2_4 >= 2
- s_1_4 - s_1_2 - 1000 r_1_2_4 >= -1001
t_1_4 - t_1_2 + 1000.000000 u_1_2_4 - 0.865973 s_1_2  + 0.865973 s_1_7  + 2000.000000 r_1_2_4 > 1.088311
s_2_4 + s_2_2 + 1000 r_2_2_4 >= 2
- s_2_4 - s_2_2 - 1000 r_2_2_4 >= -1001
t_2_4 - t_2_2 + 1000.000000 u_2_2_4 - 0.926329 s_2_2  + 0.926329 s_2_7  + 2000.000000 r_2_2_4 > 7.985976
s_1_4 + s_1_3 + 1000 r_1_3_4 >= 2
- s_1_4 - s_1_3 - 1000 r_1_3_4 >= -1001
t_1_4 - t_1_3 + 1000.000000 u_1_3_4 - 1.731947 s_1_3  + 0.865973 s_1_8  + 0.865973 s_1_7  + 2000.000000 r_1_3_4 > 0.182100
s_2_4 + s_2_3 + 1000 r_2_3_4 >= 2
- s_2_4 - s_2_3 - 1000 r_2_3_4 >= -1001
t_2_4 - t_2_3 + 1000.000000 u_2_3_4 - 1.852658 s_2_3  + 0.926329 s_2_8  + 0.926329 s_2_7  + 2000.000000 r_2_3_4 > 1.476075
s_1_4 + s_1_5 + 1000 r_1_4_5 >= 2
- s_1_4 - s_1_5 - 1000 r_1_4_5 >= -1001
t_1_4 - t_1_5 - 1000.000000 u_1_4_5 - 0.865973 s_1_5  + 0.865973 s_1_8  + 2000.000000 r_1_4_5 > -999.546978
s_2_4 + s_2_5 + 1000 r_2_4_5 >= 2
- s_2_4 - s_2_5 - 1000 r_2_4_5 >= -1001
t_2_4 - t_2_5 - 1000.000000 u_2_4_5 - 0.926329 s_2_5  + 0.926329 s_2_8  + 2000.000000 r_2_4_5 > -996.233390
t_1_6 - t_1_4 - 1000.865973 s_1_4  + 0.865973 s_1_7  > -999.747456
t_1_6 - t_2_4 - 1000.926329 s_2_4  + 0.926329 s_2_7  > -997.934238
t_2_6 - t_1_4 - 1000.865973 s_1_4  + 0.865973 s_1_7  > -999.747456
t_2_6 - t_2_4 - 1000.926329 s_2_4  + 0.926329 s_2_7  > -997.934238
t_1_4 - t_1_7 - 1000.000000 s_1_7  > -998.448700
t_1_4 - t_2_7 - 1000.000000 s_2_7  > -996.547369
t_2_4 - t_1_7 - 1000.000000 s_1_7  > -998.448700
t_2_4 - t_2_7 - 1000.000000 s_2_7  > -996.547369
s_1_4 + s_1_8 + 1000 r_1_4_8 >= 2
- s_1_4 - s_1_8 - 1000 r_1_4_8 >= -1001
t_1_4 - t_1_8 - 1000.000000 u_1_4_8 - 0.000000 s_1_8  + 2000.000000 r_1_4_8 > -998.625033
s_2_4 + s_2_8 + 1000 r_2_4_8 >= 2
- s_2_4 - s_2_8 - 1000 r_2_4_8 >= -1001
t_2_4 - t_2_8 - 1000.000000 u_2_4_8 - 0.000000 s_2_8  + 2000.000000 r_2_4_8 > -996.869056
s_1_5 + s_1_1 + 1000 r_1_1_5 >= 2
- s_1_5 - s_1_1 - 1000 r_1_1_5 >= -1001
t_1_5 - t_1_1 + 1000.000000 u_1_1_5 - 1.731947 s_1_1  + 0.865973 s_1_8  + 0.865973 s_1_7  + 2000.000000 r_1_1_5 > 1.104967
s_2_5 + s_2_1 + 1000 r_2_1_5 >= 2
- s_2_5 - s_2_1 - 1000 r_2_1_5 >= -1001
t_2_5 - t_2_1 + 1000.000000 u_2_1_5 - 1.852658 s_2_1  + 0.926329 s_2_8  + 0.926329 s_2_7  + 2000.000000 r_2_1_5 > 7.708845
s_1_5 + s_1_2 + 1000 r_1_2_5 >= 2
- s_1_5 - s_1_2 - 1000 r_1_2_5 >= -1001
t_1_5 - t_1_2 + 1000.000000 u_1_2_5 - 0.865973 s_1_2  + 0.865973 s_1_7  + 2000.000000 r_1_2_5 > 1.088311
s_2_5 + s_2_2 + 1000 r_2_2_5 >= 2
- s_2_5 - s_2_2 - 1000 r_2_2_5 >= -1001
t_2_5 - t_2_2 + 1000.000000 u_2_2_5 - 0.926329 s_2_2  + 0.926329 s_2_7  + 2000.000000 r_2_2_5 > 7.985976
s_1_5 + s_1_3 + 1000 r_1_3_5 >= 2
- s_1_5 - s_1_3 - 1000 r_1_3_5 >= -1001
t_1_5 - t_1_3 + 1000.000000 u_1_3_5 - 1.731947 s_1_3  + 0.865973 s_1_8  + 0.865973 s_1_7  + 2000.000000 r_1_3_5 > 0.182100
s_2_5 + s_2_3 + 1000 r_2_3_5 >= 2
- s_2_5 - s_2_3 - 1000 r_2_3_5 >= -1001
t_2_5 - t_2_3 + 1000.000000 u_2_3_5 - 1.852658 s_2_3  + 0.926329 s_2_8  + 0.926329 s_2_7  + 2000.000000 r_2_3_5 > 1.476075
s_1_5 + s_1_4 + 1000 r_1_4_5 >= 2
- s_1_5 - s_1_4 - 1000 r_1_4_5 >= -1001
t_1_5 - t_1_4 + 1000.000000 u_1_4_5 - 0.865973 s_1_4  + 0.865973 s_1_7  + 2000.000000 r_1_4_5 > 0.252544
s_2_5 + s_2_4 + 1000 r_2_4_5 >= 2
- s_2_5 - s_2_4 - 1000 r_2_4_5 >= -1001
t_2_5 - t_2_4 + 1000.000000 u_2_4_5 - 0.926329 s_2_4  + 0.926329 s_2_7  + 2000.000000 r_2_4_5 > 2.065762
t_1_6 - t_1_5 - 1000.865973 s_1_5  + 0.865973 s_1_8  > -999.546978
t_1_6 - t_2_5 - 1000.926329 s_2_5  + 0.926329 s_2_8  > -996.233390
t_2_6 - t_1_5 - 1000.865973 s_1_5  + 0.865973 s_1_8  > -999.546978
t_2_6 - t_2_5 - 1000.926329 s_2_5  + 0.926329 s_2_8  > -996.233390
s_1_5 + s_1_7 + 1000 r_1_5_7 >= 2
- s_1_5 - s_1_7 - 1000 r_1_5_7 >= -1001
t_1_5 - t_1_7 - 1000.000000 u_1_5_7 - 0.000000 s_1_7  + 2000.000000 r_1_5_7 > -998.448700
s_2_5 + s_2_7 + 1000 r_2_5_7 >= 2
- s_2_5 - s_2_7 - 1000 r_2_5_7 >= -1001
t_2_5 - t_2_7 - 1000.000000 u_2_5_7 - 0.000000 s_2_7  + 2000.000000 r_2_5_7 > -996.547369
t_1_5 - t_1_8 - 1000.000000 s_1_8  > -998.625033
t_1_5 - t_2_8 - 1000.000000 s_2_8  > -996.869056
t_2_5 - t_1_8 - 1000.000000 s_1_8  > -998.625033
t_2_5 - t_2_8 - 1000.000000 s_2_8  > -996.869056
t_1_6 - t_1_7 - 1000.000000 s_1_7  > -998.448700
t_1_6 - t_2_7 - 1000.000000 s_2_7  > -996.547369
t_2_6 - t_1_7 - 1000.000000 s_1_7  > -998.448700
t_2_6 - t_2_7 - 1000.000000 s_2_7  > -996.547369
s_1_7 + s_1_5 + 1000 r_1_5_7 >= 2
- s_1_7 - s_1_5 - 1000 r_1_5_7 >= -1001
t_1_7 - t_1_5 + 1000.000000 u_1_5_7 - 0.865973 s_1_5  + 0.865973 s_1_8  + 2000.000000 r_1_5_7 > 0.453022
s_2_7 + s_2_5 + 1000 r_2_5_7 >= 2
- s_2_7 - s_2_5 - 1000 r_2_5_7 >= -1001
t_2_7 - t_2_5 + 1000.000000 u_2_5_7 - 0.926329 s_2_5  + 0.926329 s_2_8  + 2000.000000 r_2_5_7 > 3.766610
s_1_7 + s_1_8 + 1000 r_1_7_8 >= 2
- s_1_7 - s_1_8 - 1000 r_1_7_8 >= -1001
t_1_7 - t_1_8 - 1000.000000 u_1_7_8 - 0.000000 s_1_8  + 2000.000000 r_1_7_8 > -998.625033
s_2_7 + s_2_8 + 1000 r_2_7_8 >= 2
- s_2_7 - s_2_8 - 1000 r_2_7_8 >= -1001
t_2_7 - t_2_8 - 1000.000000 u_2_7_8 - 0.000000 s_2_8  + 2000.000000 r_2_7_8 > -996.869056
s_1_8 + s_1_2 + 1000 r_1_2_8 >= 2
- s_1_8 - s_1_2 - 1000 r_1_2_8 >= -1001
t_1_8 - t_1_2 + 1000.000000 u_1_2_8 - 0.865973 s_1_2  + 0.865973 s_1_7  + 2000.000000 r_1_2_8 > 1.088311
s_2_8 + s_2_2 + 1000 r_2_2_8 >= 2
- s_2_8 - s_2_2 - 1000 r_2_2_8 >= -1001
t_2_8 - t_2_2 + 1000.000000 u_2_2_8 - 0.926329 s_2_2  + 0.926329 s_2_7  + 2000.000000 r_2_2_8 > 7.985976
s_1_8 + s_1_4 + 1000 r_1_4_8 >= 2
- s_1_8 - s_1_4 - 1000 r_1_4_8 >= -1001
t_1_8 - t_1_4 + 1000.000000 u_1_4_8 - 0.865973 s_1_4  + 0.865973 s_1_7  + 2000.000000 r_1_4_8 > 0.252544
s_2_8 + s_2_4 + 1000 r_2_4_8 >= 2
- s_2_8 - s_2_4 - 1000 r_2_4_8 >= -1001
t_2_8 - t_2_4 + 1000.000000 u_2_4_8 - 0.926329 s_2_4  + 0.926329 s_2_7  + 2000.000000 r_2_4_8 > 2.065762
s_1_8 + s_1_7 + 1000 r_1_7_8 >= 2
- s_1_8 - s_1_7 - 1000 r_1_7_8 >= -1001
t_1_8 - t_1_7 + 1000.000000 u_1_7_8 - 0.000000 s_1_7  + 2000.000000 r_1_7_8 > 1.551300
s_2_8 + s_2_7 + 1000 r_2_7_8 >= 2
- s_2_8 - s_2_7 - 1000 r_2_7_8 >= -1001
t_2_8 - t_2_7 + 1000.000000 u_2_7_8 - 0.000000 s_2_7  + 2000.000000 r_2_7_8 > 3.452631
Binary
s_1_1
s_2_1
s_1_2
s_2_2
s_1_3
s_2_3
s_1_4
s_2_4
s_1_5
s_2_5
s_1_6
s_2_6
s_1_7
s_2_7
s_1_8
s_2_8
u_1_1_2
r_1_1_2
u_2_1_2
r_2_1_2
u_1_1_3
r_1_1_3
u_2_1_3
r_2_1_3
u_1_1_4
r_1_1_4
u_2_1_4
r_2_1_4
u_1_1_5
r_1_1_5
u_2_1_5
r_2_1_5
u_1_2_3
r_1_2_3
u_2_2_3
r_2_2_3
u_1_2_4
r_1_2_4
u_2_2_4
r_2_2_4
u_1_2_5
r_1_2_5
u_2_2_5
r_2_2_5
u_1_2_8
r_1_2_8
u_2_2_8
r_2_2_8
u_1_3_4
r_1_3_4
u_2_3_4
r_2_3_4
u_1_3_5
r_1_3_5
u_2_3_5
r_2_3_5
u_1_4_5
r_1_4_5
u_2_4_5
r_2_4_5
u_1_4_8
r_1_4_8
u_2_4_8
r_2_4_8
u_1_5_7
r_1_5_7
u_2_5_7
r_2_5_7
u_1_7_8
r_1_7_8
u_2_7_8
r_2_7_8

End
